C1
1.0
       12.3199996948         0.0000000000         0.0000000000
       -6.1599998474        10.6694327103         0.0000000000
        0.0000000000         0.0000000000        20.0000000000
    C
   48
Direct
     0.000000000         0.000000000         0.500000000
     0.133333325         0.066666663         0.500000000
     0.000000000         0.200000003         0.500000000
     0.000000000         0.400000006         0.500000000
     0.133333325         0.466666669         0.500000000
     0.000000000         0.600000024         0.500000000
     0.133333325         0.666666627         0.500000000
     0.000000000         0.800000012         0.500000000
     0.133333310         0.866666615         0.500000000
     0.200000003         0.000000000         0.500000000
     0.333333313         0.066666663         0.500000000
     0.200000003         0.200000003         0.500000000
     0.333333343         0.266666681         0.500000000
     0.333333313         0.466666669         0.500000000
     0.200000003         0.600000024         0.500000000
     0.333333313         0.666666627         0.500000000
     0.200000003         0.800000012         0.500000000
     0.333333313         0.866666615         0.500000000
     0.400000006         0.000000000         0.500000000
     0.533333302         0.066666663         0.500000000
     0.399999976         0.200000003         0.500000000
     0.533333361         0.266666681         0.500000000
     0.400000006         0.400000006         0.500000000
     0.533333302         0.466666669         0.500000000
     0.400000006         0.600000024         0.500000000
     0.533333302         0.666666627         0.500000000
     0.400000006         0.800000012         0.500000000
     0.533333302         0.866666615         0.500000000
     0.599999964         0.000000000         0.500000000
     0.733333290         0.066666663         0.500000000
     0.599999964         0.200000003         0.500000000
     0.733333290         0.266666681         0.500000000
     0.600000024         0.400000006         0.500000000
     0.733333349         0.466666669         0.500000000
     0.600000024         0.600000024         0.500000000
     0.733333349         0.666666627         0.500000000
     0.600000024         0.800000012         0.500000000
     0.733333290         0.866666615         0.500000000
     0.800000012         0.000000000         0.500000000
     0.933333337         0.066666663         0.500000000
     0.799999952         0.200000003         0.500000000
     0.933333337         0.266666681         0.500000000
     0.799999952         0.400000006         0.500000000
     0.933333278         0.466666669         0.500000000
     0.800000012         0.600000024         0.500000000
     0.933333278         0.666666627         0.500000000
     0.800000012         0.800000012         0.500000000
     0.933333278         0.866666615         0.500000000
