C1
1.0
        2.4639999866         0.0000000000         0.0000000000
       -1.2319999933         2.1338865834         0.0000000000
        0.0000000000         0.0000000000         20
    C
    2
Direct
     0.000000000         0.000000000         0.50000000
     0.666666627         0.333333313         0.50000000
